NAME 
ROWS
 N  OBJ
 L  R0      
 E  R1      
 E  R2      
 E  R3      
 E  R4      
 E  R5      
 E  R6      
 E  R7      
 E  R8      
 E  R9      
 E  R10     
 E  R11     
 E  R12     
 E  R13     
 E  R14     
 E  R15     
COLUMNS
    MARKER    'MARKER'                 'INTORG'
    I0(7)     OBJ       -4
    I0(7)     R0        -34
    I0(7)     R3        19
    I0(7)     R4        8
    I0(7)     R5        4
    I0(7)     R6        10
    I0(7)     R7        5
    I0(7)     R15       1
    I1(5)     OBJ       3
    I1(5)     R0        -162
    I1(5)     R3        11
    I1(5)     R4        13
    I1(5)     R6        13
    I1(5)     R15       1
    I2(6)     OBJ       -189
    I2(6)     R0        93
    I2(6)     R1        12
    I2(6)     R3        11
    I2(6)     R4        9
    I2(6)     R6        -1
    I2(6)     R15       1
    I3(7)     OBJ       -109
    I3(7)     R0        -72
    I3(7)     R2        14
    I3(7)     R4        9
    I3(7)     R5        7
    I3(7)     R6        18
    I3(7)     R7        5
    I3(7)     R15       1
    I4(5)     OBJ       171
    I4(5)     R0        -165
    I4(5)     R2        2
    I4(5)     R3        15
    I4(5)     R4        18
    I4(5)     R15       1
    I5(6)     OBJ       103
    I5(6)     R0        34
    I5(6)     R1        18
    I5(6)     R2        5
    I5(6)     R4        7
    I5(6)     R6        19
    I5(6)     R15       1
    I6(7)     OBJ       -20
    I6(7)     R0        -157
    I6(7)     R1        3
    I6(7)     R3        4
    I6(7)     R4        18
    I6(7)     R5        11
    I6(7)     R6        7
    I6(7)     R15       1
    MARKER    'MARKER'                 'INTEND'
    C7(10)    OBJ       -9
    C7(10)    R0        -5
    C7(10)    R1        10
    C7(10)    R2        1
    C7(10)    R3        8
    C7(10)    R4        11
    C7(10)    R5        5
    C7(10)    R6        7
    C7(10)    R8        8
    C7(10)    R10       13
    C7(10)    R14       7
    C8(6)     OBJ       -5
    C8(6)     R0        1
    C8(6)     R1        17
    C8(6)     R3        18
    C8(6)     R4        9
    C8(6)     R9        6
    C8(6)     R12       -1
    C9(7)     OBJ       -5
    C9(7)     R0        -7
    C9(7)     R5        16
    C9(7)     R9        1
    C9(7)     R10       13
    C9(7)     R11       3
    C9(7)     R12       9
    C9(7)     R14       1
    C10(11)   OBJ       9
    C10(11)   R0        8
    C10(11)   R1        8
    C10(11)   R2        1
    C10(11)   R3        11
    C10(11)   R6        5
    C10(11)   R7        9
    C10(11)   R8        12
    C10(11)   R10       9
    C10(11)   R11       3
    C10(11)   R13       19
    C10(11)   R14       9
    C11(7)    OBJ       -6
    C11(7)    R0        -8
    C11(7)    R2        5
    C11(7)    R4        2
    C11(7)    R6        3
    C11(7)    R9        18
    C11(7)    R11       2
    C11(7)    R13       3
    C12(8)    OBJ       5
    C12(8)    R0        1
    C12(8)    R3        18
    C12(8)    R4        17
    C12(8)    R5        -1
    C12(8)    R8        2
    C12(8)    R9        7
    C12(8)    R10       18
    C12(8)    R12       13
    C13(7)    OBJ       -5
    C13(7)    R0        2
    C13(7)    R2        4
    C13(7)    R4        17
    C13(7)    R5        6
    C13(7)    R10       14
    C13(7)    R11       2
    C13(7)    R13       17
    C14(6)    OBJ       2
    C14(6)    R0        7
    C14(6)    R1        3
    C14(6)    R2        18
    C14(6)    R5        16
    C14(6)    R8        5
    C14(6)    R13       5
    C15(1)    R1        1
    C16(1)    R2        1
    C17(1)    R3        1
    C18(1)    R4        1
    C19(1)    R5        1
    C20(1)    R6        1
    C21(1)    R7        1
    C22(1)    R8        1
    C23(1)    R9        1
    C24(1)    R10       1
    C25(1)    R11       1
    C26(1)    R12       1
    C27(1)    R13       1
    C28(1)    R14       1
    C29(1)    R15       1
RHS
    RHS1      R0        -4.2152776663347048e+01
    RHS1      R1        66
    RHS1      R2        96
    RHS1      R3        97
    RHS1      R4        93
    RHS1      R5        52
    RHS1      R6        56
    RHS1      R7        92
    RHS1      R8        93
    RHS1      R9        97
    RHS1      R10       91
    RHS1      R11       62
    RHS1      R12       75
    RHS1      R13       66
    RHS1      R14       56
    RHS1      R15       2
BOUNDS
 UP BND1      I0(7)     1
 UP BND1      I1(5)     1
 UP BND1      I2(6)     1
 UP BND1      I3(7)     1
 UP BND1      I4(5)     1
 UP BND1      I5(6)     1
 UP BND1      I6(7)     1
ENDATA
